p tdp 115 114
50 95
23 26
24 70
36 6
78 21
92 47
39 78
47 104
22 57
112 81
99 78
43 88
100 5
70 15
47 50
86 102
79 1
115 65
102 76
31 35
71 33
4 60
96 20
91 78
110 98
113 44
33 87
26 42
84 8
61 27
16 41
69 51
30 9
52 60
19 65
98 69
113 12
22 20
105 68
100 112
34 67
80 15
11 13
68 88
95 75
74 18
41 1
17 46
34 109
14 79
107 10
62 45
66 94
47 2
66 73
77 67
37 45
74 61
78 55
25 85
101 29
40 63
25 28
35 54
3 56
80 93
108 12
58 82
46 59
49 90
101 82
97 13
48 81
83 3
29 32
39 66
72 18
96 30
20 4
8 89
62 83
42 28
1 74
53 82
69 16
106 7
38 12
76 32
111 115
30 78
48 43
38 5
93 67
36 74
90 59
30 102
111 103
114 1
106 65
80 82
64 107
11 7
3 88
3 71
35 96
104 17
40 1
58 25
84 25
18 10
114 80
20 115
3 49
64 95
